x low 7.00
p edge 11 47
n 64 1.00
n 65 1.00
n 63 1.00
n 62 1.00
n 61 1.00
n 60 1.00
n 59 1.00
n 58 1.00
n 57 1.00
n 56 1.00
n 55 1.00
e 64 65
e 63 65
e 63 64
e 62 65
e 62 64
e 62 63
e 61 65
e 61 64
e 61 63
e 61 62
e 60 65
e 60 64
e 60 63
e 60 62
e 60 61
e 59 64
e 59 63
e 59 62
e 59 61
e 59 60
e 58 65
e 58 63
e 58 62
e 58 61
e 58 60
e 58 59
e 57 65
e 57 64
e 57 61
e 57 60
e 57 59
e 57 58
e 56 64
e 56 63
e 56 60
e 56 59
e 56 58
e 56 57
e 55 63
e 55 62
e 55 60
e 55 59
e 55 58
e 55 57
e 55 56
e 61 56
e 61 55
